; benchmark generated from python API
(set-info :status unknown)
(define-funs-rec ( ( T2_09 ((x!1 Int)) Int)
                   ( o2_09 ((x!1 Int)) Int)
                   ( f2_09 ((x!1 Int)) Int)
                   ( p2_09 ((x!1 Int)) Int)
                   ( T2_02 ((x!1 Int)) Int)
                   ( p2_02 ((x!1 Int)) Int))
                 ( (mod (+ ((_ o2_09 0) x!1) 1) 2)
                   (let ((a!1 ((_ f2_09 0) (+ ((_ o2_09 0) (- x!1 1)) 1))))
                     (ite (= x!1 0) 1 a!1))
                   (ite (= (mod ((_ p2_09 0) x!1) 2) 1)
                        x!1
                        ((_ f2_09 0) (+ x!1 1)))
                   (ite (= x!1 0) 0 (+ ((_ p2_09 0) (div x!1 2)) x!1))
                   (let ((a!1 (/ (- 1.0 (^ (- 1) ((_ p2_02 0) x!1))) 2.0)))
                     (to_int a!1))
                   (ite (= x!1 0) 0 (+ ((_ p2_02 0) (div x!1 2)) (mod x!1 2)))))
(assert
 (forall ((n Int) )(let ((?x250 ((_ T2_09 0) n)))
(let ((?x215 ((_ T2_02 0) n)))
(let (($x251 (= ?x215 ?x250)))
(let (($x296 (>= n 0)))
(=> $x296 $x251))))))
)
(check-sat)
